
******************************************************************************
This program contains Ipopt, a library for large-scale nonlinear optimization.
 Ipopt is released as open source code under the Eclipse Public License (EPL).
         For more information visit http://projects.coin-or.org/Ipopt
******************************************************************************

This is Ipopt version 3.12.6, running with linear solver ma57.

Number of nonzeros in equality constraint Jacobian...:        2
Number of nonzeros in inequality constraint Jacobian.:        0
Number of nonzeros in Lagrangian Hessian.............:        6

Total number of variables............................:        3
                     variables with only lower bounds:        1
                variables with lower and upper bounds:        1
                     variables with only upper bounds:        0
Total number of equality constraints.................:        1
Total number of inequality constraints...............:        0
        inequality constraints with only lower bounds:        0
   inequality constraints with lower and upper bounds:        0
        inequality constraints with only upper bounds:        0

iter    objective    inf_pr   inf_du lg(mu)  ||d||  lg(rg) alpha_du alpha_pr  ls
   0  3.1813398e+01 2.01e-02 2.57e+01  -1.0 0.00e+00    -  0.00e+00 0.00e+00   0
   1  2.2217046e+01 2.72e-01 4.23e+00  -1.0 5.24e-01    -  7.03e-01 9.95e-01f  1
   2  2.6100078e+01 8.08e-02 1.46e+01  -1.0 5.38e-01    -  9.90e-01 1.00e+00h  1
   3  2.5927190e+01 4.79e-02 3.26e+01  -1.0 3.02e-01    -  9.90e-01 4.14e-01h  1
   4  2.7860708e+01 1.30e-02 9.56e+00  -1.0 2.95e-01    -  9.90e-01 1.00e+00h  1
   5  2.8580819e+01 5.39e-03 5.54e+01  -1.0 9.87e-02    -  9.90e-01 6.59e-01h  1
   6  2.9622139e+01 1.68e-03 1.04e+01  -1.0 5.46e-02    -  1.00e+00 1.00e+00h  1
   7  2.9842140e+01 5.80e-04 1.59e+02  -1.0 1.19e-02    -  1.00e+00 6.97e-01h  1
   8  3.0275653e+01 2.55e-04 1.38e+01  -1.0 1.60e-02    -  1.00e+00 1.00e+00h  1
   9  3.0269873e+01 6.89e-05 4.51e+02  -1.0 2.73e-04    -  1.00e+00 7.30e-01h  1
iter    objective    inf_pr   inf_du lg(mu)  ||d||  lg(rg) alpha_du alpha_pr  ls
  10  3.0480341e+01 5.77e-05 2.43e+01  -1.0 7.60e-03    -  1.00e+00 1.00e+00f  1
  11  3.0389736e+01 1.54e-05 3.27e+02  -1.0 3.55e-03    -  1.00e+00 9.18e-01h  1
  12  3.0513017e+01 1.96e-05 3.88e+01  -1.0 4.43e-03    -  1.00e+00 1.00e+00f  1
  13  3.0454666e+01 4.35e-06 9.41e-02  -1.7 2.58e-03    -  1.00e+00 1.00e+00f  1
  14  3.0465272e+01 1.24e-06 1.57e+03  -5.7 1.43e-03    -  1.00e+00 7.49e-01h  1
  15  3.0480657e+01 3.05e-07 7.20e+00  -5.7 6.70e-04    -  1.00e+00 1.00e+00h  1
  16  3.0487283e+01 9.04e-08 3.30e+03  -5.7 2.67e-04    -  1.00e+00 8.89e-01h  1
  17  3.0487290e+01 9.02e-08 4.69e+04  -5.7 1.36e-04    -  1.00e+00 1.95e-03f 10
  18  3.0491081e+01 1.85e-08 6.38e+00  -5.7 1.36e-04    -  1.00e+00 1.00e+00h  1
  19  3.0492394e+01 2.22e-09 2.77e+00  -5.7 4.71e-05    -  1.00e+00 1.00e+00h  1
iter    objective    inf_pr   inf_du lg(mu)  ||d||  lg(rg) alpha_du alpha_pr  ls
  20  3.0492602e+01 5.54e-11 2.01e-01  -5.7 7.45e-06    -  1.00e+00 1.00e+00h  1
  21  3.0492607e+01 3.74e-14 3.27e-04  -5.7 1.93e-07    -  1.00e+00 1.00e+00h  1
  22  3.0492606e+01 4.33e-15 5.90e-06  -8.6 6.59e-08    -  1.00e+00 1.00e+00f  1
  23  3.0492606e+01 1.11e-16 2.91e-11  -9.0 7.22e-11    -  1.00e+00 1.00e+00h  1

Number of Iterations....: 23

                                   (scaled)                 (unscaled)
Objective...............:   3.0492605563678161e+01    3.0492605563678161e+01
Dual infeasibility......:   2.9103830456733704e-11    2.9103830456733704e-11
Constraint violation....:   1.1102230246251565e-16    1.1102230246251565e-16
Complementarity.........:   9.1991138308904492e-10    9.1991138308904492e-10
Overall NLP error.......:   1.3988810110276930e-12    9.1991138308904492e-10


Number of objective function evaluations             = 33
Number of objective gradient evaluations             = 24
Number of equality constraint evaluations            = 33
Number of inequality constraint evaluations          = 0
Number of equality constraint Jacobian evaluations   = 24
Number of inequality constraint Jacobian evaluations = 0
Number of Lagrangian Hessian evaluations             = 23
Total CPU secs in IPOPT (w/o function evaluations)   =      0.007
Total CPU secs in NLP function evaluations           =      0.000

EXIT: Optimal Solution Found.

************************ CUTEst statistics ************************


 Package used            :  IPOPT
 Problem                 :  ALLINITC  
 # variables             =               4
 # constraints           =               1
 # objective functions   =        0.5800000E+02
 # objective gradients   =        0.2500000E+02
 # objective Hessians    =        0.2400000E+02
 # Hessian-vector prdct  =        0.0000000E+00
 # constraints functions =        0.5900000E+02
 # constraints gradients =        0.2600000E+02
 # constraints Hessians  =        0.2400000E+02
 Exit code               =               0
 Final f                 =   0.3049261E+02
 Set up time             =            0.00 seconds
 Solve time              =            0.03 seconds


******************************************************************

System Time =       0.0080000004 s.
